Results/Experiment 1 Results/Existing Benchmark/RES_40/i-40-100-19.txt
solutions: 2 nodes: 3  modelTime: 108  solveTime: 17  totalTime: 128  modelSize: 7389  readTime: 3 matchingSize: 20
