Results/Experiment 2 Results/Existing Benchmark/i-40-100-19.lp
clingo version 5.4.0
Reading from tempSRTISolver.lp ...
Solving...
Answer: 1
matched(30,2) matched(29,3) matched(31,4) matched(13,5) matched(20,6) matched(23,7) matched(35,8) matched(19,9) matched(12,10) matched(15,11) matched(10,12) matched(5,13) matched(17,14) matched(11,15) matched(37,16) matched(14,17) matched(25,18) matched(9,19) matched(6,20) matched(39,21) matched(1,22) matched(7,23) matched(26,24) matched(18,25) matched(24,26) matched(28,27) matched(27,28) matched(3,29) matched(2,30) matched(4,31) matched(33,32) matched(32,33) matched(36,34) matched(8,35) matched(34,36) matched(16,37) matched(40,38) matched(21,39) matched(38,40) matched(22,1)
Optimization: 232
OPTIMUM FOUND

Models       : 1
  Optimum    : yes
Optimization : 232
Calls        : 1
Time         : 1.243s (Solving: 0.06s 1st Model: 0.01s Unsat: 0.05s)
CPU Time     : 1.242s
